RSW03
Position Depot: Center
Horizon for Depot: Small
Position of customers: Random
Distribution of the demand: Small
Width of time windows: Wide
Distribution of the service: Small

VEHICLE 
NUMBER 	 CAPACITY 
 16 	 	 22 
 
CUSTOMER
CUST NO. 	 XCOORD.  	 YCOORD. 	 DEMAND 	 READY TIME 	 DUE DATE 	 SERVICE TIME 
 0 	 	 500 	 	 500 	 	 0 	 	 0 	 	 1897 	 	 0 
  1 	 	 220 	 	 431 	 	 5 	 	 1347 	 	 1637 	 	 98 
  2 	 	 718 	 	 699 	 	 8 	 	 674 	 	 1065 	 	 83 
  3 	 	 145 	 	 819 	 	 5 	 	 1435 	 	 1897 	 	 95 
  4 	 	 163 	 	 46 	 	 9 	 	 1435 	 	 1743 	 	 98 
  5 	 	 514 	 	 556 	 	 10 	 	 773 	 	 1131 	 	 69 
  6 	 	 486 	 	 137 	 	 5 	 	 1232 	 	 1663 	 	 77 
  7 	 	 684 	 	 690 	 	 9 	 	 494 	 	 917 	 	 95 
  8 	 	 372 	 	 876 	 	 6 	 	 1403 	 	 1741 	 	 63 
  9 	 	 684 	 	 472 	 	 9 	 	 1455 	 	 1897 	 	 67 
  10 	 	 703 	 	 638 	 	 8 	 	 411 	 	 752 	 	 78 
  11 	 	 67 	 	 113 	 	 7 	 	 742 	 	 1089 	 	 83 
  12 	 	 840 	 	 911 	 	 6 	 	 860 	 	 1223 	 	 65 
  13 	 	 158 	 	 160 	 	 7 	 	 1286 	 	 1613 	 	 76 
  14 	 	 863 	 	 30 	 	 10 	 	 677 	 	 1080 	 	 64 
  15 	 	 139 	 	 73 	 	 5 	 	 176 	 	 615 	 	 88 
  16 	 	 744 	 	 388 	 	 6 	 	 398 	 	 798 	 	 67 
  17 	 	 8 	 	 290 	 	 6 	 	 168 	 	 588 	 	 68 
  18 	 	 756 	 	 686 	 	 7 	 	 1203 	 	 1617 	 	 85 
  19 	 	 62 	 	 678 	 	 10 	 	 1258 	 	 1534 	 	 56 
  20 	 	 917 	 	 791 	 	 6 	 	 836 	 	 1285 	 	 77 
  21 	 	 113 	 	 948 	 	 5 	 	 553 	 	 915 	 	 69 
  22 	 	 36 	 	 313 	 	 8 	 	 174 	 	 550 	 	 68 
  23 	 	 572 	 	 642 	 	 6 	 	 369 	 	 709 	 	 60 
  24 	 	 941 	 	 293 	 	 9 	 	 450 	 	 934 	 	 55 
  25 	 	 917 	 	 712 	 	 5 	 	 247 	 	 514 	 	 74 
  26 	 	 330 	 	 347 	 	 8 	 	 167 	 	 516 	 	 51 
  27 	 	 772 	 	 991 	 	 7 	 	 139 	 	 617 	 	 90 
  28 	 	 627 	 	 582 	 	 5 	 	 622 	 	 1098 	 	 79 
  29 	 	 835 	 	 788 	 	 5 	 	 1423 	 	 1883 	 	 74 
  30 	 	 108 	 	 127 	 	 9 	 	 1062 	 	 1270 	 	 100 
  31 	 	 392 	 	 91 	 	 8 	 	 1588 	 	 1897 	 	 72 
  32 	 	 599 	 	 33 	 	 8 	 	 727 	 	 1204 	 	 70 
  33 	 	 193 	 	 8 	 	 6 	 	 745 	 	 1186 	 	 66 
  34 	 	 442 	 	 646 	 	 9 	 	 -1 	 	 412 	 	 78 
  35 	 	 564 	 	 528 	 	 7 	 	 1481 	 	 1728 	 	 53 
  36 	 	 920 	 	 910 	 	 8 	 	 266 	 	 645 	 	 99 
  37 	 	 911 	 	 852 	 	 6 	 	 162 	 	 595 	 	 73 
  38 	 	 113 	 	 606 	 	 9 	 	 552 	 	 803 	 	 63 
  39 	 	 616 	 	 325 	 	 6 	 	 1615 	 	 1897 	 	 71 
  40 	 	 789 	 	 83 	 	 6 	 	 1354 	 	 1704 	 	 85 
  41 	 	 597 	 	 975 	 	 5 	 	 759 	 	 1248 	 	 79 
  42 	 	 833 	 	 512 	 	 8 	 	 597 	 	 983 	 	 83 
  43 	 	 788 	 	 652 	 	 9 	 	 827 	 	 1116 	 	 93 
  44 	 	 955 	 	 848 	 	 6 	 	 341 	 	 630 	 	 69 
  45 	 	 181 	 	 667 	 	 10 	 	 154 	 	 460 	 	 99 
  46 	 	 137 	 	 710 	 	 6 	 	 1463 	 	 1897 	 	 100 
  47 	 	 141 	 	 86 	 	 8 	 	 797 	 	 1277 	 	 74 
  48 	 	 403 	 	 625 	 	 10 	 	 1321 	 	 1738 	 	 84 
  49 	 	 979 	 	 661 	 	 9 	 	 1183 	 	 1606 	 	 80 
  50 	 	 286 	 	 488 	 	 6 	 	 1221 	 	 1522 	 	 74 
 